100 500 200 500 10 100
12 265
47 368
69 343
80 240
50 232
13 473
72 461
37 299
98 306
27 408
20 358
75 488
27 370
45 439
47 486
53 256
94 337
10 335
94 364
57 220
58 380
78 461
90 357
54 342
100 457
41 455
99 475
82 364
34 432
10 335
54 247
20 417
61 264
63 313
17 426
51 222
34 274
65 293
50 491
26 292
43 384
75 261
80 490
19 401
36 427
74 287
27 376
45 307
21 203
48 265
34 202
10 433
34 218
88 407
36 360
39 456
24 495
26 350
23 289
23 303
46 485
84 388
88 342
57 498
79 364
44 222
47 299
78 393
25 380
61 326
33 246
91 231
56 445
21 423
42 330
19 448
75 364
57 423
20 279
78 299
25 431
18 258
72 476
86 296
69 499
18 292
89 350
55 485
14 402
67 277
54 433
41 294
68 309
44 200
18 385
47 280
50 319
11 243
58 238
79 296
